
Gurobi 11.0.3 (linux64) logging started Fri Nov 22 21:41:11 2024

Set parameter LogFile to value "/home/yihong/Coding/OR_SUC/SUC_results_bigM100000_thread4/case24_ieee_rts_theta0.1_epsilon0.025_gurobi_seed990000_num_gen100_N_WDR100_load_scaling_factor1_proposed_T16quadra_cost.txt"
Set parameter TimeLimit to value 3600
Gurobi Optimizer version 11.0.3 build v11.0.3rc0 (linux64 - "Ubuntu 20.04.6 LTS")

CPU model: AMD EPYC 7532 32-Core Processor, instruction set [SSE2|AVX|AVX2]
Thread count: 64 physical cores, 128 logical processors, using up to 4 threads

Optimize a model with 34462 rows, 19941 columns and 471930 nonzeros
Model fingerprint: 0xf1625785
Model has 1600 quadratic constraints
Variable types: 18341 continuous, 1600 integer (1600 binary)
Coefficient statistics:
  Matrix range     [3e-04, 3e+03]
  QMatrix range    [2e-03, 8e-03]
  QLMatrix range   [3e-01, 6e+01]
  Objective range  [1e+00, 1e+00]
  Bounds range     [1e+00, 1e+00]
  RHS range        [1e+00, 9e+03]
Presolve removed 27979 rows and 8698 columns
Presolve time: 0.17s
Presolved: 6483 rows, 11243 columns, 43040 nonzeros
Presolved model has 1600 quadratic constraint(s)
Variable types: 9643 continuous, 1600 integer (1600 binary)

Root relaxation: objective 2.716737e+04, 4987 iterations, 0.10 seconds (0.13 work units)

    Nodes    |    Current Node    |     Objective Bounds      |     Work
 Expl Unexpl |  Obj  Depth IntInf | Incumbent    BestBd   Gap | It/Node Time

     0     0 27167.3720    0    -          - 27167.3720      -     -    0s
     0     0 283359.219    0  392          - 283359.219      -     -    0s
     0     0 481197.031    0  353          - 481197.031      -     -    0s
     0     0 481241.454    0  223          - 481241.454      -     -    0s
     0     0 481369.125    0  111          - 481369.125      -     -    0s
     0     0 481372.962    0  111          - 481372.962      -     -    0s
     0     0 481372.962    0  111          - 481372.962      -     -    1s
     0     0 481373.297    0  111          - 481373.297      -     -    1s
     0     2 481373.297    0  111          - 481373.297      -     -    1s
H  229   232                    481611.90059 481380.082  0.05%  33.6    3s
*  229   232              74    481611.90059 481380.082  0.05%  33.6    3s

Cutting planes:
  Gomory: 110
  Lift-and-project: 2
  Implied bound: 333
  MIR: 74
  Flow cover: 59
  RLT: 168

Explored 239 nodes (21576 simplex iterations) in 3.98 seconds (5.34 work units)
Thread count was 4 (of 128 available processors)

Solution count 2: 481612 481612 

Optimal solution found (tolerance 1.00e-03)
Warning: max constraint violation (2.5023e-07) exceeds tolerance
Best objective 4.816119005947e+05, best bound 4.813800822310e+05, gap 0.0481%
